63
150
105	2
104	1
103	1
102	1
101	2
100	1
99	1
96	1
95	2
89	3
87	2
85	1
84	3
83	3
82	1
81	2
80	1
79	1
78	1
77	1
75	1
74	1
73	1
69	1
67	1
66	1
65	1
61	3
59	4
57	2
55	2
54	4
52	1
51	2
50	1
48	2
46	2
44	2
43	3
41	2
40	2
39	1
38	2
37	2
36	1
35	1
34	2
32	1
31	2
30	1
29	1
28	1
27	2
26	1
25	1
24	2
23	1
22	1
21	1
19	1
18	3
17	1
16	1
